p cnf 564 646
c ind 243 244 245 246 247 248 249 250 0
c ind 251 252 253 254 255 256 257 258 259 260 0
c ind 261 262 263 264 265 266 267 268 269 270 0
c ind 271 272 273 274 275 276 277 278 279 280 0
c ind 281 282 283 284 285 286 287 288 289 290 0
c ind 291 292 293 294 295 296 297 298 299 300 0
c ind 301 302 303 304 305 306 307 308 309 310 0
c ind 311 312 313 314 315 316 317 318 319 320 0
c ind 321 322 323 324 325 326 327 328 329 330 0
c ind 331 332 333 334 335 336 337 338 339 340 0
c ind 341 342 343 344 345 346 347 348 349 350 0
c ind 351 352 353 354 355 356 357 358 359 360 0
c ind 361 362 363 364 365 366 367 368 369 370 0
c ind 371 372 373 374 375 376 377 378 379 380 0
c ind 381 382 383 384 385 386 387 388 389 390 0
c ind 391 392 393 394 395 396 397 398 399 400 0
c ind 401 402 403 404 405 406 407 408 409 410 0
c ind 411 412 413 414 415 416 417 418 419 420 0
c ind 421 422 423 424 425 426 427 428 429 430 0
c ind 431 432 433 434 435 436 437 438 439 440 0
c ind 441 442 443 444 445 446 447 448 449 450 0
c ind 451 452 453 454 455 456 457 458 459 460 0
c ind 461 462 463 464 465 466 467 468 469 470 0
c ind 471 472 473 474 475 476 477 478 479 480 0
c ind 481 482 483 484 485 486 487 488 489 490 0
c ind 491 492 493 494 495 496 497 498 499 500 0
c ind 501 502 503 504 505 506 507 508 509 510 0
c ind 511 512 513 514 515 516 517 518 519 520 0
c ind 521 522 523 524 525 526 527 528 529 530 0
c ind 531 532 533 534 535 536 537 538 539 540 0
c ind 541 542 543 544 545 546 547 548 549 550 0
c ind 551 552 553 554 555 556 557 558 559 560 0
c ind 561 562 563 564 0
50 0
-64 0
-1 -243 139 0
1 -243 -139 0
-2 -244 124 0
2 -244 -124 0
-3 -245 115 0
3 -245 -115 0
-4 -246 14 0
4 -246 -14 0
-4 -247 62 0
4 -247 -62 0
-4 -248 63 0
4 -248 -63 0
-4 -249 64 0
4 -249 -64 0
-4 -250 137 0
4 -250 -137 0
-4 -251 208 0
4 -251 -208 0
-5 -252 41 0
5 -252 -41 0
-5 -253 84 0
5 -253 -84 0
-6 -254 9 0
6 -254 -9 0
-6 -255 69 0
6 -255 -69 0
-6 -256 179 0
6 -256 -179 0
-7 -257 119 0
7 -257 -119 0
-8 -258 50 0
8 -258 -50 0
-8 -259 66 0
8 -259 -66 0
-9 -260 178 0
9 -260 -178 0
-10 -261 114 0
10 -261 -114 0
-10 -262 117 0
10 -262 -117 0
-11 -263 95 0
11 -263 -95 0
-11 -264 96 0
11 -264 -96 0
-12 -265 187 0
12 -265 -187 0
-13 -266 85 0
13 -266 -85 0
-13 -267 195 0
13 -267 -195 0
-14 -268 154 0
14 -268 -154 0
-14 -269 182 0
14 -269 -182 0
-14 -270 183 0
14 -270 -183 0
-14 -271 184 0
14 -271 -184 0
-14 -272 208 0
14 -272 -208 0
-14 -273 212 0
14 -273 -212 0
-14 -274 214 0
14 -274 -214 0
-15 -275 52 0
15 -275 -52 0
-16 -276 39 0
16 -276 -39 0
-17 -277 50 0
17 -277 -50 0
-17 -278 132 0
17 -278 -132 0
-18 -279 20 0
18 -279 -20 0
-18 -280 64 0
18 -280 -64 0
-19 -281 123 0
19 -281 -123 0
-20 -282 61 0
20 -282 -61 0
-20 -283 75 0
20 -283 -75 0
-20 -284 127 0
20 -284 -127 0
-21 -285 36 0
21 -285 -36 0
-21 -286 52 0
21 -286 -52 0
-21 -287 96 0
21 -287 -96 0
-22 -288 128 0
22 -288 -128 0
-22 -289 129 0
22 -289 -129 0
-23 -290 72 0
23 -290 -72 0
-23 -291 98 0
23 -291 -98 0
-23 -292 100 0
23 -292 -100 0
-24 -293 50 0
24 -293 -50 0
-25 -294 157 0
25 -294 -157 0
-25 -295 158 0
25 -295 -158 0
-25 -296 161 0
25 -296 -161 0
-25 -297 215 0
25 -297 -215 0
-26 -298 103 0
26 -298 -103 0
-27 -299 110 0
27 -299 -110 0
-28 -300 64 0
28 -300 -64 0
-29 -301 92 0
29 -301 -92 0
-29 -302 93 0
29 -302 -93 0
-30 -303 108 0
30 -303 -108 0
-31 -304 86 0
31 -304 -86 0
-31 -305 127 0
31 -305 -127 0
-31 -306 128 0
31 -306 -128 0
-32 -307 73 0
32 -307 -73 0
-33 -308 52 0
33 -308 -52 0
-33 -309 95 0
33 -309 -95 0
-33 -310 96 0
33 -310 -96 0
-33 -311 209 0
33 -311 -209 0
-34 -312 80 0
34 -312 -80 0
-34 -313 168 0
34 -313 -168 0
-34 -314 169 0
34 -314 -169 0
-34 -315 170 0
34 -315 -170 0
-35 -316 50 0
35 -316 -50 0
-35 -317 56 0
35 -317 -56 0
-35 -318 126 0
35 -318 -126 0
-37 -319 99 0
37 -319 -99 0
-37 -320 100 0
37 -320 -100 0
-38 -321 97 0
38 -321 -97 0
-38 -322 98 0
38 -322 -98 0
-39 -323 64 0
39 -323 -64 0
-39 -324 92 0
39 -324 -92 0
-39 -325 193 0
39 -325 -193 0
-40 -326 50 0
40 -326 -50 0
-40 -327 59 0
40 -327 -59 0
-40 -328 131 0
40 -328 -131 0
-40 -329 162 0
40 -329 -162 0
-40 -330 166 0
40 -330 -166 0
-40 -331 167 0
40 -331 -167 0
-41 -332 86 0
41 -332 -86 0
-42 -333 64 0
42 -333 -64 0
-42 -334 76 0
42 -334 -76 0
-42 -335 78 0
42 -335 -78 0
-42 -336 221 0
42 -336 -221 0
-42 -337 223 0
42 -337 -223 0
-42 -338 225 0
42 -338 -225 0
-42 -339 231 0
42 -339 -231 0
-42 -340 234 0
42 -340 -234 0
-43 -341 56 0
43 -341 -56 0
-43 -342 66 0
43 -342 -66 0
-43 -343 126 0
43 -343 -126 0
-44 -344 64 0
44 -344 -64 0
-44 -345 115 0
44 -345 -115 0
-45 -346 57 0
45 -346 -57 0
-45 -347 235 0
45 -347 -235 0
-46 -348 64 0
46 -348 -64 0
-46 -349 106 0
46 -349 -106 0
-46 -350 130 0
46 -350 -130 0
-46 -351 140 0
46 -351 -140 0
-46 -352 233 0
46 -352 -233 0
-46 -353 234 0
46 -353 -234 0
-46 -354 240 0
46 -354 -240 0
-47 -355 102 0
47 -355 -102 0
-47 -356 160 0
47 -356 -160 0
-48 -357 117 0
48 -357 -117 0
-48 -358 118 0
48 -358 -118 0
-49 -359 73 0
49 -359 -73 0
-49 -360 107 0
49 -360 -107 0
-50 -361 54 0
50 -361 -54 0
-50 -362 75 0
50 -362 -75 0
-50 -363 122 0
50 -363 -122 0
-50 -364 123 0
50 -364 -123 0
-50 -365 125 0
50 -365 -125 0
-50 -366 126 0
50 -366 -126 0
-50 -367 132 0
50 -367 -132 0
-50 -368 170 0
50 -368 -170 0
-51 -369 101 0
51 -369 -101 0
-51 -370 104 0
51 -370 -104 0
-52 -371 60 0
52 -371 -60 0
-52 -372 98 0
52 -372 -98 0
-52 -373 99 0
52 -373 -99 0
-52 -374 100 0
52 -374 -100 0
-52 -375 101 0
52 -375 -101 0
-52 -376 130 0
52 -376 -130 0
-52 -377 209 0
52 -377 -209 0
-52 -378 215 0
52 -378 -215 0
-52 -379 237 0
52 -379 -237 0
-52 -380 238 0
52 -380 -238 0
-52 -381 239 0
52 -381 -239 0
-53 -382 239 0
53 -382 -239 0
-54 -383 122 0
54 -383 -122 0
-54 -384 200 0
54 -384 -200 0
-54 -385 201 0
54 -385 -201 0
-54 -386 202 0
54 -386 -202 0
-55 -387 58 0
55 -387 -58 0
-55 -388 103 0
55 -388 -103 0
-57 -389 63 0
57 -389 -63 0
-57 -390 112 0
57 -390 -112 0
-58 -391 105 0
58 -391 -105 0
-58 -392 241 0
58 -392 -241 0
-59 -393 117 0
59 -393 -117 0
-59 -394 118 0
59 -394 -118 0
-59 -395 131 0
59 -395 -131 0
-59 -396 137 0
59 -396 -137 0
-59 -397 138 0
59 -397 -138 0
-59 -398 147 0
59 -398 -147 0
-59 -399 149 0
59 -399 -149 0
-59 -400 150 0
59 -400 -150 0
-59 -401 152 0
59 -401 -152 0
-59 -402 211 0
59 -402 -211 0
-59 -403 239 0
59 -403 -239 0
-62 -404 89 0
62 -404 -89 0
-64 -405 68 0
64 -405 -68 0
-64 -406 78 0
64 -406 -78 0
-64 -407 92 0
64 -407 -92 0
-64 -408 93 0
64 -408 -93 0
-64 -409 104 0
64 -409 -104 0
-64 -410 109 0
64 -410 -109 0
-64 -411 111 0
64 -411 -111 0
-64 -412 112 0
64 -412 -112 0
-64 -413 130 0
64 -413 -130 0
-64 -414 193 0
64 -414 -193 0
-64 -415 232 0
64 -415 -232 0
-64 -416 236 0
64 -416 -236 0
-64 -417 241 0
64 -417 -241 0
-65 -418 87 0
65 -418 -87 0
-66 -419 199 0
66 -419 -199 0
-67 -420 168 0
67 -420 -168 0
-68 -421 75 0
68 -421 -75 0
-68 -422 208 0
68 -422 -208 0
-69 -423 82 0
69 -423 -82 0
-69 -424 121 0
69 -424 -121 0
-69 -425 207 0
69 -425 -207 0
-70 -426 131 0
70 -426 -131 0
-70 -427 191 0
70 -427 -191 0
-71 -428 75 0
71 -428 -75 0
-72 -429 73 0
72 -429 -73 0
-72 -430 219 0
72 -430 -219 0
-73 -431 110 0
73 -431 -110 0
-73 -432 219 0
73 -432 -219 0
-73 -433 220 0
73 -433 -220 0
-73 -434 221 0
73 -434 -221 0
-74 -435 197 0
74 -435 -197 0
-74 -436 198 0
74 -436 -198 0
-75 -437 119 0
75 -437 -119 0
-75 -438 122 0
75 -438 -122 0
-75 -439 123 0
75 -439 -123 0
-75 -440 124 0
75 -440 -124 0
-75 -441 177 0
75 -441 -177 0
-75 -442 178 0
75 -442 -178 0
-75 -443 192 0
75 -443 -192 0
-75 -444 208 0
75 -444 -208 0
-76 -445 136 0
76 -445 -136 0
-76 -446 222 0
76 -446 -222 0
-77 -447 94 0
77 -447 -94 0
-77 -448 147 0
77 -448 -147 0
-78 -449 111 0
78 -449 -111 0
-78 -450 229 0
78 -450 -229 0
-78 -451 231 0
78 -451 -231 0
-79 -452 132 0
79 -452 -132 0
-80 -453 176 0
80 -453 -176 0
-81 -454 167 0
81 -454 -167 0
-82 -455 121 0
82 -455 -121 0
-82 -456 206 0
82 -456 -206 0
-83 -457 114 0
83 -457 -114 0
-84 -458 87 0
84 -458 -87 0
-84 -459 88 0
84 -459 -88 0
-85 -460 87 0
85 -460 -87 0
-86 -461 128 0
86 -461 -128 0
-86 -462 129 0
86 -462 -129 0
-87 -463 196 0
87 -463 -196 0
-89 -464 138 0
89 -464 -138 0
-90 -465 107 0
90 -465 -107 0
-91 -466 101 0
91 -466 -101 0
-94 -467 209 0
94 -467 -209 0
-95 -468 97 0
95 -468 -97 0
-97 -469 99 0
97 -469 -99 0
-101 -470 102 0
101 -470 -102 0
-102 -471 103 0
102 -471 -103 0
-104 -472 105 0
104 -472 -105 0
-104 -473 232 0
104 -473 -232 0
-105 -474 106 0
105 -474 -106 0
-106 -475 133 0
106 -475 -133 0
-108 -476 133 0
108 -476 -133 0
-108 -477 221 0
108 -477 -221 0
-109 -478 139 0
109 -478 -139 0
-109 -479 194 0
109 -479 -194 0
-110 -480 221 0
110 -480 -221 0
-111 -481 116 0
111 -481 -116 0
-112 -482 118 0
112 -482 -118 0
-112 -483 235 0
112 -483 -235 0
-113 -484 116 0
113 -484 -116 0
-113 -485 136 0
113 -485 -136 0
-113 -486 156 0
113 -486 -156 0
-114 -487 115 0
114 -487 -115 0
-116 -488 154 0
116 -488 -154 0
-119 -489 120 0
119 -489 -120 0
-119 -490 179 0
119 -490 -179 0
-119 -491 208 0
119 -491 -208 0
-120 -492 121 0
120 -492 -121 0
-120 -493 208 0
120 -493 -208 0
-124 -494 125 0
124 -494 -125 0
-125 -495 134 0
125 -495 -134 0
-125 -496 203 0
125 -496 -203 0
-129 -497 197 0
129 -497 -197 0
-134 -498 135 0
134 -498 -135 0
-139 -499 194 0
139 -499 -194 0
-140 -500 241 0
140 -500 -241 0
-141 -501 142 0
141 -501 -142 0
-141 -502 143 0
141 -502 -143 0
-141 -503 149 0
141 -503 -149 0
-143 -504 144 0
143 -504 -144 0
-143 -505 146 0
143 -505 -146 0
-145 -506 146 0
145 -506 -146 0
-147 -507 209 0
147 -507 -209 0
-148 -508 149 0
148 -508 -149 0
-148 -509 211 0
148 -509 -211 0
-150 -510 151 0
150 -510 -151 0
-151 -511 158 0
151 -511 -158 0
-151 -512 210 0
151 -512 -210 0
-152 -513 153 0
152 -513 -153 0
-153 -514 155 0
153 -514 -155 0
-154 -515 155 0
154 -515 -155 0
-155 -516 156 0
155 -516 -156 0
-156 -517 214 0
156 -517 -214 0
-157 -518 159 0
157 -518 -159 0
-157 -519 160 0
157 -519 -160 0
-158 -520 159 0
158 -520 -159 0
-162 -521 163 0
162 -521 -163 0
-162 -522 164 0
162 -522 -164 0
-164 -523 165 0
164 -523 -165 0
-165 -524 166 0
165 -524 -166 0
-165 -525 191 0
165 -525 -191 0
-167 -526 168 0
167 -526 -168 0
-168 -527 175 0
168 -527 -175 0
-169 -528 172 0
169 -528 -172 0
-170 -529 171 0
170 -529 -171 0
-170 -530 174 0
170 -530 -174 0
-170 -531 204 0
170 -531 -204 0
-171 -532 172 0
171 -532 -172 0
-171 -533 173 0
171 -533 -173 0
-172 -534 173 0
172 -534 -173 0
-175 -535 204 0
175 -535 -204 0
-176 -536 192 0
176 -536 -192 0
-177 -537 201 0
177 -537 -201 0
-180 -538 183 0
180 -538 -183 0
-181 -539 182 0
181 -539 -182 0
-182 -540 183 0
182 -540 -183 0
-183 -541 207 0
183 -541 -207 0
-184 -542 189 0
184 -542 -189 0
-185 -543 189 0
185 -543 -189 0
-185 -544 205 0
185 -544 -205 0
-186 -545 189 0
186 -545 -189 0
-186 -546 190 0
186 -546 -190 0
-187 -547 190 0
187 -547 -190 0
-187 -548 191 0
187 -548 -191 0
-188 -549 190 0
188 -549 -190 0
-202 -550 204 0
202 -550 -204 0
-208 -551 212 0
208 -551 -212 0
-212 -552 214 0
212 -552 -214 0
-212 -553 242 0
212 -553 -242 0
-213 -554 214 0
213 -554 -214 0
-216 -555 217 0
216 -555 -217 0
-216 -556 227 0
216 -556 -227 0
-217 -557 218 0
217 -557 -218 0
-223 -558 224 0
223 -558 -224 0
-225 -559 226 0
225 -559 -226 0
-226 -560 227 0
226 -560 -227 0
-227 -561 231 0
227 -561 -231 0
-228 -562 229 0
228 -562 -229 0
-228 -563 230 0
228 -563 -230 0
-230 -564 231 0
230 -564 -231 0
